<?xml version = "1.0" standalone="yes"?>
<!-- This file has been generated by DOcplex version 2.23.222  -->
<CPLEXSolution version="1.0">
 <header
   problemName="CVRP"
   objectiveValue="12262.2"
  />
 <variables>
  <variable name="x_0_4" index="3" value="1.00000"/>
  <variable name="x_0_5" index="4" value="1.00000"/>
  <variable name="x_0_6" index="5" value="1.00000"/>
  <variable name="x_0_7" index="6" value="1.00000"/>
  <variable name="x_0_8" index="7" value="1.00000"/>
  <variable name="x_0_9" index="8" value="1.00000"/>
  <variable name="x_0_10" index="9" value="1.00000"/>
  <variable name="x_0_15" index="14" value="1.00000"/>
  <variable name="x_0_16" index="15" value="1.00000"/>
  <variable name="x_0_18" index="17" value="1.00000"/>
  <variable name="x_0_19" index="18" value="1.00000"/>
  <variable name="x_0_22" index="21" value="1.00000"/>
  <variable name="x_1_0" index="22" value="1.00000"/>
  <variable name="x_2_3" index="46" value="1.00000"/>
  <variable name="x_3_0" index="66" value="1.00000"/>
  <variable name="x_4_2" index="90" value="1.00000"/>
  <variable name="x_5_21" index="130" value="1.00000"/>
  <variable name="x_6_0" index="132" value="1.00000"/>
  <variable name="x_7_0" index="154" value="1.00000"/>
  <variable name="x_8_11" index="186" value="1.00000"/>
  <variable name="x_9_12" index="209" value="1.00000"/>
  <variable name="x_10_17" index="236" value="1.00000"/>
  <variable name="x_11_0" index="242" value="1.00000"/>
  <variable name="x_12_0" index="264" value="1.00000"/>
  <variable name="x_13_0" index="286" value="1.00000"/>
  <variable name="x_14_0" index="308" value="1.00000"/>
  <variable name="x_15_20" index="349" value="1.00000"/>
  <variable name="x_16_14" index="366" value="1.00000"/>
  <variable name="x_17_0" index="374" value="1.00000"/>
  <variable name="x_18_0" index="396" value="1.00000"/>
  <variable name="x_19_13" index="431" value="1.00000"/>
  <variable name="x_20_1" index="441" value="1.00000"/>
  <variable name="x_21_0" index="462" value="1.00000"/>
  <variable name="x_22_0" index="484" value="1.00000"/>
  <variable name="u_1" index="506" value="38.00000"/>
  <variable name="u_2" index="507" value="27.00000"/>
  <variable name="u_3" index="508" value="39.00000"/>
  <variable name="u_4" index="509" value="24.00000"/>
  <variable name="u_5" index="510" value="17.00000"/>
  <variable name="u_6" index="511" value="33.00000"/>
  <variable name="u_7" index="512" value="33.00000"/>
  <variable name="u_8" index="513" value="10.00000"/>
  <variable name="u_9" index="514" value="16.00000"/>
  <variable name="u_10" index="515" value="13.00000"/>
  <variable name="u_11" index="516" value="39.00000"/>
  <variable name="u_12" index="517" value="38.00000"/>
  <variable name="u_13" index="518" value="38.00000"/>
  <variable name="u_14" index="519" value="38.00000"/>
  <variable name="u_15" index="520" value="8.00000"/>
  <variable name="u_16" index="521" value="26.00000"/>
  <variable name="u_17" index="522" value="35.00000"/>
  <variable name="u_18" index="523" value="34.00000"/>
  <variable name="u_19" index="524" value="19.00000"/>
  <variable name="u_20" index="525" value="17.00000"/>
  <variable name="u_21" index="526" value="39.00000"/>
  <variable name="u_22" index="527" value="39.00000"/>
 </variables>
</CPLEXSolution>
